p cnf 100 1
100 0
w 1 0.230599
w 2 1 0.876456
w 2 -1 0.990734
w 3 2 1
w 3 -2 0
w 4 3 0
w 4 -3 1
w 5 4 0.498531
w 5 -4 0.135465
w 6 5 0.0620633
w 6 -5 0.89814
w 7 6 0
w 7 -6 1
w 8 7 1
w 8 -7 0
w 9 8 0.255626
w 9 -8 0.958215
w 10 9 1
w 10 -9 0
w 11 1 1
w 11 -1 0
w 12 11 2 0.470952
w 12 11 -2 0.661312
w 12 -11 2 0.631644
w 12 -11 -2 0.0711858
w 13 12 3 0.862243
w 13 12 -3 0.838046
w 13 -12 3 0.627586
w 13 -12 -3 0.852978
w 14 13 4 1
w 14 13 -4 1
w 14 -13 4 0
w 14 -13 -4 0
w 15 14 5 1
w 15 14 -5 0
w 15 -14 5 0
w 15 -14 -5 0
w 16 15 6 0
w 16 15 -6 0
w 16 -15 6 1
w 16 -15 -6 1
w 17 16 7 0
w 17 16 -7 1
w 17 -16 7 0
w 17 -16 -7 1
w 18 17 8 0
w 18 17 -8 0
w 18 -17 8 1
w 18 -17 -8 0
w 19 18 9 0.53307
w 19 18 -9 0.394492
w 19 -18 9 0.824715
w 19 -18 -9 0.160656
w 20 19 10 0
w 20 19 -10 0
w 20 -19 10 1
w 20 -19 -10 0
w 21 11 0
w 21 -11 1
w 22 21 12 0.916623
w 22 21 -12 0.0757746
w 22 -21 12 0.0222502
w 22 -21 -12 0.403052
w 23 22 13 1
w 23 22 -13 1
w 23 -22 13 0
w 23 -22 -13 1
w 24 23 14 0.169063
w 24 23 -14 0.537045
w 24 -23 14 0.108484
w 24 -23 -14 0.0696675
w 25 24 15 1
w 25 24 -15 0
w 25 -24 15 1
w 25 -24 -15 1
w 26 25 16 0.263912
w 26 25 -16 0.58415
w 26 -25 16 0.243878
w 26 -25 -16 0.398979
w 27 26 17 0
w 27 26 -17 1
w 27 -26 17 0
w 27 -26 -17 0
w 28 27 18 0
w 28 27 -18 1
w 28 -27 18 1
w 28 -27 -18 0
w 29 28 19 0
w 29 28 -19 1
w 29 -28 19 0
w 29 -28 -19 0
w 30 29 20 0
w 30 29 -20 0
w 30 -29 20 1
w 30 -29 -20 0
w 31 21 0
w 31 -21 1
w 32 31 22 0.994618
w 32 31 -22 0.434683
w 32 -31 22 0.225446
w 32 -31 -22 0.991026
w 33 32 23 0
w 33 32 -23 1
w 33 -32 23 0
w 33 -32 -23 0
w 34 33 24 1
w 34 33 -24 0
w 34 -33 24 1
w 34 -33 -24 0
w 35 34 25 1
w 35 34 -25 0
w 35 -34 25 1
w 35 -34 -25 0
w 36 35 26 0.993715
w 36 35 -26 0.189881
w 36 -35 26 0.0303763
w 36 -35 -26 0.999629
w 37 36 27 0.35341
w 37 36 -27 0.542588
w 37 -36 27 0.904456
w 37 -36 -27 0.746112
w 38 37 28 1
w 38 37 -28 1
w 38 -37 28 0
w 38 -37 -28 0
w 39 38 29 0
w 39 38 -29 0
w 39 -38 29 1
w 39 -38 -29 0
w 40 39 30 0
w 40 39 -30 0
w 40 -39 30 1
w 40 -39 -30 0
w 41 31 0
w 41 -31 1
w 42 41 32 0
w 42 41 -32 0
w 42 -41 32 1
w 42 -41 -32 0
w 43 42 33 1
w 43 42 -33 0
w 43 -42 33 1
w 43 -42 -33 1
w 44 43 34 0
w 44 43 -34 0
w 44 -43 34 0
w 44 -43 -34 1
w 45 44 35 0.103323
w 45 44 -35 0.314419
w 45 -44 35 0.718638
w 45 -44 -35 0.774677
w 46 45 36 1
w 46 45 -36 1
w 46 -45 36 1
w 46 -45 -36 0
w 47 46 37 0.0856675
w 47 46 -37 0.254783
w 47 -46 37 0.324175
w 47 -46 -37 0.0619118
w 48 47 38 0
w 48 47 -38 1
w 48 -47 38 0
w 48 -47 -38 0
w 49 48 39 1
w 49 48 -39 1
w 49 -48 39 1
w 49 -48 -39 0
w 50 49 40 1
w 50 49 -40 0
w 50 -49 40 0
w 50 -49 -40 0
w 51 41 0
w 51 -41 1
w 52 51 42 1
w 52 51 -42 0
w 52 -51 42 1
w 52 -51 -42 1
w 53 52 43 0.363313
w 53 52 -43 0.391975
w 53 -52 43 0.212135
w 53 -52 -43 0.231345
w 54 53 44 1
w 54 53 -44 0
w 54 -53 44 0
w 54 -53 -44 0
w 55 54 45 1
w 55 54 -45 0
w 55 -54 45 1
w 55 -54 -45 1
w 56 55 46 0.626725
w 56 55 -46 0.0454212
w 56 -55 46 0.438781
w 56 -55 -46 0.95367
w 57 56 47 0.723288
w 57 56 -47 0.526767
w 57 -56 47 0.798271
w 57 -56 -47 0.39036
w 58 57 48 0
w 58 57 -48 0
w 58 -57 48 0
w 58 -57 -48 1
w 59 58 49 0
w 59 58 -49 1
w 59 -58 49 0
w 59 -58 -49 1
w 60 59 50 1
w 60 59 -50 1
w 60 -59 50 0
w 60 -59 -50 1
w 61 51 0.932732
w 61 -51 0.476409
w 62 61 52 0.732552
w 62 61 -52 0.30318
w 62 -61 52 0.768439
w 62 -61 -52 0.359277
w 63 62 53 1
w 63 62 -53 0
w 63 -62 53 0
w 63 -62 -53 0
w 64 63 54 0.00343508
w 64 63 -54 0.320868
w 64 -63 54 0.92646
w 64 -63 -54 0.846737
w 65 64 55 1
w 65 64 -55 1
w 65 -64 55 0
w 65 -64 -55 1
w 66 65 56 0
w 66 65 -56 1
w 66 -65 56 0
w 66 -65 -56 1
w 67 66 57 0
w 67 66 -57 0
w 67 -66 57 1
w 67 -66 -57 1
w 68 67 58 1
w 68 67 -58 0
w 68 -67 58 1
w 68 -67 -58 1
w 69 68 59 0
w 69 68 -59 1
w 69 -68 59 0
w 69 -68 -59 0
w 70 69 60 0.337125
w 70 69 -60 0.280113
w 70 -69 60 0.710607
w 70 -69 -60 0.183862
w 71 61 0.00242828
w 71 -61 0.693608
w 72 71 62 0
w 72 71 -62 1
w 72 -71 62 1
w 72 -71 -62 1
w 73 72 63 0
w 73 72 -63 1
w 73 -72 63 0
w 73 -72 -63 0
w 74 73 64 1
w 74 73 -64 0
w 74 -73 64 0
w 74 -73 -64 1
w 75 74 65 1
w 75 74 -65 0
w 75 -74 65 1
w 75 -74 -65 1
w 76 75 66 0
w 76 75 -66 0
w 76 -75 66 0
w 76 -75 -66 1
w 77 76 67 1
w 77 76 -67 0
w 77 -76 67 1
w 77 -76 -67 0
w 78 77 68 1
w 78 77 -68 0
w 78 -77 68 1
w 78 -77 -68 0
w 79 78 69 0
w 79 78 -69 1
w 79 -78 69 1
w 79 -78 -69 0
w 80 79 70 0.147066
w 80 79 -70 0.197024
w 80 -79 70 0.0786789
w 80 -79 -70 0.589265
w 81 71 1
w 81 -71 0
w 82 81 72 1
w 82 81 -72 0
w 82 -81 72 0
w 82 -81 -72 0
w 83 82 73 0
w 83 82 -73 1
w 83 -82 73 1
w 83 -82 -73 1
w 84 83 74 1
w 84 83 -74 0
w 84 -83 74 0
w 84 -83 -74 0
w 85 84 75 1
w 85 84 -75 1
w 85 -84 75 0
w 85 -84 -75 1
w 86 85 76 0
w 86 85 -76 0
w 86 -85 76 0
w 86 -85 -76 1
w 87 86 77 0
w 87 86 -77 1
w 87 -86 77 1
w 87 -86 -77 0
w 88 87 78 0.514932
w 88 87 -78 0.475622
w 88 -87 78 0.807851
w 88 -87 -78 0.449927
w 89 88 79 0.0623051
w 89 88 -79 0.599549
w 89 -88 79 0.955145
w 89 -88 -79 0.716799
w 90 89 80 0.466639
w 90 89 -80 0.464941
w 90 -89 80 0.535937
w 90 -89 -80 0.116955
w 91 81 1
w 91 -81 0
w 92 91 82 1
w 92 91 -82 1
w 92 -91 82 0
w 92 -91 -82 0
w 93 92 83 0
w 93 92 -83 0
w 93 -92 83 0
w 93 -92 -83 1
w 94 93 84 1
w 94 93 -84 0
w 94 -93 84 0
w 94 -93 -84 1
w 95 94 85 1
w 95 94 -85 0
w 95 -94 85 1
w 95 -94 -85 1
w 96 95 86 1
w 96 95 -86 0
w 96 -95 86 0
w 96 -95 -86 1
w 97 96 87 1
w 97 96 -87 1
w 97 -96 87 0
w 97 -96 -87 1
w 98 97 88 0.483841
w 98 97 -88 0.333511
w 98 -97 88 0.590314
w 98 -97 -88 0.632867
w 99 98 89 0
w 99 98 -89 1
w 99 -98 89 0
w 99 -98 -89 0
w 100 99 90 0
w 100 99 -90 0
w 100 -99 90 0
w 100 -99 -90 1